
Gurobi 11.0.1 (win64) logging started Thu May 16 19:32:19 2024

Set parameter LogFile to value "output/solver_log42.txt"
Gurobi Optimizer version 11.0.1 build v11.0.1rc0 (win64 - Windows 11.0 (22631.2))

CPU model: 11th Gen Intel(R) Core(TM) i7-1165G7 @ 2.80GHz, instruction set [SSE2|AVX|AVX2|AVX512]
Thread count: 4 physical cores, 8 logical processors, using up to 8 threads

Optimize a model with 5004 rows, 1300 columns and 92815 nonzeros
Model fingerprint: 0x0ac0d2ee
Variable types: 568 continuous, 732 integer (732 binary)
Coefficient statistics:
  Matrix range     [4e-01, 1e+05]
  Objective range  [1e+00, 1e+02]
  Bounds range     [1e+00, 1e+00]
  RHS range        [1e-02, 1e+05]

User MIP start produced solution with objective 97563.6 (0.01s)
User MIP start produced solution with objective 97563.6 (0.01s)
Loaded user MIP start with objective 97563.6

Presolve removed 585 rows and 336 columns
Presolve time: 0.11s
Presolved: 4419 rows, 964 columns, 83848 nonzeros
Variable types: 524 continuous, 440 integer (437 binary)

Root relaxation: objective 9.779264e+04, 1134 iterations, 0.06 seconds (0.11 work units)

    Nodes    |    Current Node    |     Objective Bounds      |     Work
 Expl Unexpl |  Obj  Depth IntInf | Incumbent    BestBd   Gap | It/Node Time

     0     0 97792.6436    0    6 97563.5876 97792.6436  0.23%     -    0s
     0     0 97613.8236    0    7 97563.5876 97613.8236  0.05%     -    0s
     0     0 97613.8236    0    7 97563.5876 97613.8236  0.05%     -    0s

Cutting planes:
  MIR: 2

Explored 1 nodes (1405 simplex iterations) in 0.65 seconds (0.85 work units)
Thread count was 8 (of 8 available processors)

Solution count 2: 97563.6 97563.6 

Optimal solution found (tolerance 1.00e-04)
Best objective 9.756358758706e+04, best bound 9.756917535039e+04, gap 0.0057%
